p cnf 150 30
x -1 2 -3 -5 6 8 -9 -10 -11 -13 -14 -18 20 22 -25 -26 32 34 35 36 -38 39 40 -47 -48 -49 51 -52 -54 55 -58 59 -60 -61 64 66 67 -72 -73 -80 -82 -87 89 -91 93 -95 97 100 103 -104 -105 -106 -107 -108 -110 -112 113 -114 -116 117 119 -120 121 -127 128 -130 131 132 133 135 -138 -140 143 -145 149 150 0
x -4 10 15 16 -18 -19 20 -22 -23 27 28 29 -30 31 32 -38 -39 41 44 45 47 -48 -50 53 -56 57 -59 60 62 -63 -65 68 71 75 77 80 -81 -84 -85 -86 -87 88 89 91 -94 -96 -97 102 -104 105 107 108 112 118 119 -121 -122 123 -126 -128 131 -135 136 -137 140 -143 -146 -147 0
x 1 2 3 -4 7 -12 -13 14 15 -20 25 26 29 30 31 32 36 -38 -39 41 43 44 -45 -47 48 -49 52 -53 -54 59 61 -65 69 -71 -73 -74 78 -80 81 -83 -84 -85 -86 -90 91 92 -93 94 -95 96 97 99 -100 -103 105 106 -110 111 -113 115 116 117 -118 119 121 123 -126 -127 -129 -130 131 -132 136 -137 138 -139 -140 -142 -147 -148 149 -150 0
x -2 -3 4 -6 10 -12 -13 -16 24 -25 26 -27 29 30 32 -35 -36 -39 40 42 -43 -44 -45 -50 56 57 60 -61 -62 67 68 -70 -76 78 79 -80 -83 -85 -86 88 90 -91 -92 -93 94 -95 -96 98 99 100 -101 105 106 -107 -110 114 -115 119 -120 122 -123 124 -125 127 135 -136 -139 -141 -142 -143 147 148 0
x -5 6 7 -8 10 -11 12 13 -15 -17 19 -26 -27 28 29 30 -31 -35 -38 -42 -43 45 -46 47 -50 52 -54 56 -57 59 -60 -65 69 -71 73 74 76 -78 -80 81 -82 83 -84 85 87 88 -89 -90 -91 -92 -99 102 -106 -109 114 -116 117 -119 -120 -124 -125 -126 127 130 -131 -132 135 136 -137 138 -141 -142 148 -149 0
x -1 -3 -4 9 -10 13 -18 -19 20 -21 -22 24 25 -27 28 33 35 37 -38 -39 40 -42 -45 47 50 -51 -54 55 57 59 60 -61 -62 -64 67 -70 -71 72 74 75 77 -79 80 81 82 -84 -85 88 -89 91 -92 98 103 -104 106 -112 -113 114 -116 120 -121 -123 124 125 -126 -127 128 130 131 132 135 137 -139 -142 146 0
x 2 3 5 -7 9 10 -11 14 -15 -18 -21 -23 24 25 -26 27 -28 30 -33 -34 -35 -36 -39 43 -44 49 -51 53 57 58 59 61 62 -63 65 -67 -68 -69 70 71 -72 -73 74 76 77 78 -81 82 -83 85 -87 -89 92 93 94 96 -97 -98 -105 106 -107 110 112 115 -116 -122 -127 128 -131 132 -133 138 140 -142 -147 148 -150 0
x 1 2 3 -4 5 -7 -8 9 11 12 13 15 16 20 26 -28 -30 -31 33 34 35 -36 -37 38 -43 -44 -45 48 50 -51 54 -55 -56 -61 -63 -65 -69 -70 -71 -73 74 -75 -77 -78 79 80 -85 86 -90 94 -96 -97 -99 101 -103 105 -108 109 114 115 116 118 -119 123 -126 127 129 130 134 135 -136 -138 139 -142 143 -144 -149 -150 0
x 1 2 3 -4 6 7 -8 -11 18 19 20 21 22 -24 -26 -28 -31 -32 -33 35 -37 40 -44 47 48 -50 51 53 -54 -59 60 -61 62 66 67 -70 71 -72 74 -78 -80 82 84 85 88 89 90 94 96 98 -99 -101 -102 -104 105 107 -110 112 -115 117 119 121 122 -124 125 -126 127 -129 -130 132 133 -134 -135 -138 148 -149 0
x 1 3 -4 5 8 9 11 12 -13 14 -17 20 -21 26 -27 -29 -30 -33 -34 -37 -38 39 41 -42 -43 -44 -45 -46 48 -51 54 55 59 60 -61 64 65 66 67 69 -71 -72 74 75 -76 77 79 -84 -86 -90 91 -93 -94 -95 96 -99 -100 102 103 -104 105 -106 -108 -109 112 -113 -117 -118 121 -122 -123 125 -126 127 -130 -131 -132 133 -134 136 137 138 139 144 -145 148 -150 0
x -1 -3 -5 7 -8 -12 -13 15 16 17 18 -19 20 -21 -22 -23 26 -27 -30 32 -33 34 -37 38 39 40 44 54 55 -58 -59 61 62 -65 -70 71 -72 74 -75 -78 -80 -81 82 83 -88 -91 -92 -93 94 -95 -96 -98 99 102 104 105 110 111 -112 -113 -114 115 -117 124 125 126 134 138 142 143 145 -148 0
x 1 5 -6 -7 -9 -10 -12 14 17 18 24 27 28 -29 -32 33 -37 39 41 -42 46 48 -52 53 54 -55 -57 59 60 -62 -66 -68 69 70 71 75 76 -78 -80 -81 -82 85 86 87 -92 -96 98 100 101 -102 107 -109 -113 114 116 -119 -120 -121 -123 125 -127 -128 129 -131 135 136 -138 140 -141 -144 147 148 0
x 2 -7 -9 -11 -12 -13 14 -15 21 24 -26 27 29 33 34 35 -39 -40 -43 -44 -47 49 50 51 55 -59 61 66 69 -70 -71 73 76 78 80 82 83 -86 -87 -88 90 92 93 -94 -96 -100 106 -108 -109 -116 119 -120 121 -123 -124 -127 -129 -135 -136 142 143 -148 -149 -150 0
x 1 3 7 8 -9 10 11 -15 -16 -18 19 -20 22 23 26 -28 -29 -30 -32 -33 -36 -37 -39 40 43 -45 -49 -50 -51 -56 -57 -59 60 -63 64 -65 69 71 75 76 -79 -82 -83 85 -86 -87 90 91 -92 -93 -95 97 -99 102 -103 -104 -105 -106 108 -110 112 113 -115 -116 117 -118 119 -127 -128 129 -134 135 138 -139 -140 -144 -150 0
x 2 4 -6 7 8 12 13 -16 17 -19 20 21 23 -24 25 -26 27 -28 30 31 32 -35 -36 38 41 -42 -43 48 -49 53 -55 56 58 -60 -61 64 66 -70 71 72 -73 -77 79 81 -82 -83 84 -85 -90 -91 93 94 -95 102 -104 -105 -107 -108 -110 -113 114 115 -116 117 -118 122 -126 -127 129 131 135 139 140 144 -146 147 148 150 0
x 2 -3 6 -8 10 12 13 -18 -19 -21 25 -27 29 34 36 -37 -38 39 42 43 -45 -47 48 -49 -50 -53 54 -58 60 -63 66 -70 -72 73 -76 78 79 80 -81 -84 -85 -86 -87 90 91 93 95 96 98 -100 101 -102 -103 105 109 -112 113 114 -118 -119 120 122 -123 -124 -125 126 129 -133 134 136 137 -138 139 -140 142 143 144 145 -149 0
x 2 -4 5 6 8 9 -15 17 21 -28 31 -35 -37 38 -41 -43 -45 47 48 49 51 55 -58 -64 -66 -68 -70 -71 -72 75 76 -77 -79 82 84 85 -86 -87 -88 94 -95 96 97 -98 -102 105 -110 112 114 -115 117 119 120 121 122 -123 124 -125 -127 -128 130 132 -133 134 -136 -137 -140 -142 -143 144 -145 149 0
x 3 -6 7 9 10 11 14 -15 16 19 20 22 -23 -26 27 -28 29 30 -32 -39 -46 -47 53 54 55 -56 -63 -64 65 66 -70 -73 74 75 -76 -77 78 -81 -83 84 -86 -87 90 -91 -93 -96 97 -99 -100 -101 102 -103 107 -108 -109 -115 -116 117 118 119 -121 122 123 125 -127 -128 129 -130 -132 -136 139 140 141 142 145 146 -147 148 149 -150 0
x 1 2 -3 -6 8 9 -12 14 -16 18 -21 22 23 -24 26 27 28 29 -32 -34 37 -41 -42 -46 -48 -50 -52 -53 54 -56 58 59 61 62 -64 -66 -68 70 -71 -72 -74 -75 76 -81 -83 -85 -88 89 92 93 100 102 -106 -109 111 113 -114 115 -117 -118 -123 -124 126 -129 -136 138 -140 141 142 145 146 147 -149 0
x -1 3 4 7 9 12 -13 -15 17 -18 -20 -22 -24 -29 -31 32 -34 38 -39 -42 44 -45 47 49 -52 -56 -58 -60 -61 -63 65 66 70 -73 74 -76 77 -79 -80 -81 82 -88 -91 -92 94 95 -96 100 -101 -105 -108 -109 113 115 118 -121 -122 -126 127 130 -132 133 -135 -136 -138 139 141 -143 -144 146 148 -149 150 0
x 3 4 6 8 -9 13 14 -16 -17 -18 -19 23 -25 27 -31 33 -34 -37 41 42 -50 -51 -52 57 58 -60 63 -64 -66 67 69 -73 74 75 -76 78 -81 82 -83 -84 -86 -88 -89 -92 95 -96 99 100 -101 -103 105 -110 115 118 -119 120 124 125 126 131 132 -133 134 135 136 -140 141 -142 145 -147 -148 -149 0
x 4 5 7 13 14 -15 16 -17 -18 -22 -25 -28 -29 -30 -31 -32 -33 38 -43 -44 45 -47 48 50 52 53 55 -57 60 62 63 -66 -69 71 -72 -73 74 -75 78 -80 -83 86 -90 93 94 -95 98 101 -102 103 104 105 106 -108 -111 -112 113 114 -116 117 120 -121 122 -125 -128 -130 -132 -133 134 136 -137 139 141 142 -143 -144 -147 148 -150 0
x -1 2 5 6 -7 10 -12 -14 15 -16 -18 -20 -22 25 27 29 30 -31 36 38 40 43 44 45 46 -49 -50 -52 -56 -57 59 -61 62 64 -66 69 -71 -73 -74 78 -79 -81 -82 85 -86 -89 90 -93 94 97 -98 100 -102 -106 -108 -110 -112 -113 -116 117 -120 121 -122 125 -128 129 -131 -137 -138 139 140 142 -144 145 -148 0
x 1 4 -5 10 11 13 17 20 -22 -24 25 26 -29 -30 -31 -32 -33 34 -35 -37 38 41 42 -43 -45 -46 -47 49 51 -52 55 -56 -62 -63 64 65 66 67 74 -75 77 -78 -81 82 85 -90 91 92 93 95 -96 -99 -101 -104 105 -108 -111 112 -114 116 -117 119 -120 -123 -128 -135 -137 138 139 141 -142 -144 -145 146 147 0
x 2 3 -5 6 8 10 13 -14 16 -18 20 -22 -24 -25 -26 30 -32 -33 -39 -40 41 -43 -46 48 -50 51 52 -54 55 56 57 -64 -65 68 69 72 74 -75 77 -78 -80 -81 83 -85 87 90 -95 -96 98 99 100 -102 -104 106 107 110 111 -113 -114 116 -117 118 -120 122 123 -124 -125 126 129 133 -134 -135 -138 -141 143 -144 146 -149 -150 0
x -1 -2 -3 -4 -5 9 12 13 14 -15 17 18 -19 22 23 -25 -27 -29 30 32 34 -37 39 41 -44 45 46 48 51 -52 -55 -56 -57 58 -59 61 64 -67 -69 70 72 -73 -74 76 77 78 83 -87 90 -93 -94 96 100 102 -103 104 -107 111 -112 -113 -114 -115 116 124 -125 126 127 128 -129 -131 132 -134 135 137 142 -143 145 -146 147 -148 149 0
x -1 2 5 -6 -7 8 13 -14 -18 20 -22 23 25 -26 -27 -28 31 -32 -35 38 -39 40 -43 45 49 -53 55 57 -62 63 65 68 75 -76 -79 82 86 88 -92 -93 -94 97 102 -104 106 -107 114 118 -119 -120 -121 -122 124 127 128 131 -132 133 134 136 -137 -140 -141 143 144 -145 146 149 0
x 1 -6 7 -8 -9 -10 -12 -13 -15 16 21 -23 -25 -29 -35 -36 37 38 39 -44 -46 -50 -51 -52 54 55 -57 59 61 -64 65 66 67 68 -69 -70 71 72 73 74 75 78 79 -80 81 82 -83 84 -87 89 -93 -95 -98 -101 102 -104 -108 109 -111 113 114 118 120 -121 -122 -123 -125 126 -127 128 -132 -133 -134 135 -136 -140 -141 -142 144 -145 146 148 0
x 7 8 9 10 -11 14 -15 -18 -21 -22 -24 28 32 -33 -35 -36 37 38 39 -43 -46 -47 48 49 58 59 61 62 64 -65 -66 67 -68 69 -72 -73 74 -75 -76 77 85 -91 94 -95 97 98 -100 101 -102 105 -110 -111 119 -121 123 -124 -125 -126 -127 128 -133 139 140 141 -143 -144 -145 -146 -148 -150 0
x -2 -6 -7 -8 10 -11 -13 14 16 17 -19 -21 25 28 29 30 31 -34 -35 38 -40 -41 42 46 -48 53 -54 -55 57 -58 62 -64 67 68 -69 -70 73 74 75 77 -79 80 -82 -83 -84 -87 92 93 -95 97 101 -102 -105 -106 108 112 113 114 -118 -120 -121 126 128 130 -132 -133 -134 135 -136 -138 139 -140 -141 145 146 -148 0
g -45